Optimize a model with 30 rows, 17 columns and 78 nonzeros
Variable types: 9 continuous, 8 integer (8 binary)
Coefficient statistics:
  Matrix range     [1e+00, 1e+01]
  Objective range  [0e+00, 0e+00]
  Bounds range     [1e+00, 1e+01]
  RHS range        [3e-01, 1e+01]
Presolve removed 12 rows and 7 columns
Presolve time: 0.00s
Presolved: 18 rows, 10 columns, 49 nonzeros
Variable types: 3 continuous, 7 integer (7 binary)

Root relaxation: objective 0.000000e+00, 4 iterations, 0.00 seconds

    Nodes    |    Current Node    |     Objective Bounds      |     Work
 Expl Unexpl |  Obj  Depth IntInf | Incumbent    BestBd   Gap | It/Node Time

*    0     0               0       0.0000000    0.00000  0.00%     -    0s

Explored 0 nodes (4 simplex iterations) in 0.02 seconds
Thread count was 32 (of 32 available processors)

Solution count 1: 0 

Optimal solution found (tolerance 1.00e-04)
Best objective 0.000000000000e+00, best bound 0.000000000000e+00, gap 0.0000%
Warning: model has pending changes.
New model does not contain these changes.
Optimize a model with 121 rows, 78 columns and 315 nonzeros
Variable types: 56 continuous, 22 integer (22 binary)
Coefficient statistics:
  Matrix range     [1e+00, 1e+01]
  Objective range  [1e+00, 1e+00]
  Bounds range     [1e+00, 1e+01]
  RHS range        [1e-01, 1e+01]
Presolve removed 105 rows and 68 columns
Presolve time: 0.00s
Presolved: 16 rows, 10 columns, 42 nonzeros
Variable types: 4 continuous, 6 integer (6 binary)

Root relaxation: objective -2.250000e-01, 4 iterations, 0.00 seconds

    Nodes    |    Current Node    |     Objective Bounds      |     Work
 Expl Unexpl |  Obj  Depth IntInf | Incumbent    BestBd   Gap | It/Node Time

*    0     0               0      -0.2250000   -0.22500  0.00%     -    0s

Explored 0 nodes (4 simplex iterations) in 0.03 seconds
Thread count was 32 (of 32 available processors)

Solution count 1: -0.225 

Optimal solution found (tolerance 1.00e-04)
Best objective -2.250000000000e-01, best bound -2.250000000000e-01, gap 0.0000%
Optimize a model with 30 rows, 17 columns and 78 nonzeros
Variable types: 9 continuous, 8 integer (8 binary)
Coefficient statistics:
  Matrix range     [1e+00, 1e+01]
  Objective range  [0e+00, 0e+00]
  Bounds range     [1e+00, 1e+01]
  RHS range        [3e-01, 1e+01]
Presolve removed 6 rows and 4 columns
Presolve time: 0.00s
Presolved: 24 rows, 13 columns, 66 nonzeros
Variable types: 3 continuous, 10 integer (10 binary)
Found heuristic solution: objective 0.0000000

Explored 0 nodes (0 simplex iterations) in 0.02 seconds
Thread count was 32 (of 32 available processors)

Solution count 1: 0 

Optimal solution found (tolerance 1.00e-04)
Best objective 0.000000000000e+00, best bound 0.000000000000e+00, gap 0.0000%
Optimize a model with 30 rows, 17 columns and 78 nonzeros
Variable types: 9 continuous, 8 integer (8 binary)
Coefficient statistics:
  Matrix range     [1e+00, 1e+01]
  Objective range  [0e+00, 0e+00]
  Bounds range     [1e+00, 1e+01]
  RHS range        [3e-01, 1e+01]
Presolve removed 16 rows and 9 columns
Presolve time: 0.00s
Presolved: 14 rows, 8 columns, 38 nonzeros
Variable types: 2 continuous, 6 integer (6 binary)
Found heuristic solution: objective 0.0000000

Explored 0 nodes (0 simplex iterations) in 0.02 seconds
Thread count was 32 (of 32 available processors)

Solution count 1: 0 

Optimal solution found (tolerance 1.00e-04)
Best objective 0.000000000000e+00, best bound 0.000000000000e+00, gap 0.0000%
Optimize a model with 30 rows, 17 columns and 78 nonzeros
Variable types: 9 continuous, 8 integer (8 binary)
Coefficient statistics:
  Matrix range     [1e+00, 1e+01]
  Objective range  [0e+00, 0e+00]
  Bounds range     [1e+00, 1e+01]
  RHS range        [3e-01, 1e+01]
Presolve removed 12 rows and 7 columns
Presolve time: 0.00s
Presolved: 18 rows, 10 columns, 49 nonzeros
Variable types: 3 continuous, 7 integer (7 binary)

Root relaxation: objective 0.000000e+00, 4 iterations, 0.00 seconds

    Nodes    |    Current Node    |     Objective Bounds      |     Work
 Expl Unexpl |  Obj  Depth IntInf | Incumbent    BestBd   Gap | It/Node Time

*    0     0               0       0.0000000    0.00000  0.00%     -    0s

Explored 0 nodes (4 simplex iterations) in 0.02 seconds
Thread count was 32 (of 32 available processors)

Solution count 1: 0 

Optimal solution found (tolerance 1.00e-04)
Best objective 0.000000000000e+00, best bound 0.000000000000e+00, gap 0.0000%
Optimize a model with 30 rows, 17 columns and 62 nonzeros
Variable types: 9 continuous, 8 integer (8 binary)
Coefficient statistics:
  Matrix range     [1e+00, 1e+01]
  Objective range  [0e+00, 0e+00]
  Bounds range     [1e+00, 1e+01]
  RHS range        [3e-01, 1e+01]
Presolve removed 19 rows and 10 columns
Presolve time: 0.00s
Presolved: 11 rows, 7 columns, 24 nonzeros
Variable types: 0 continuous, 7 integer (6 binary)
Found heuristic solution: objective 0.0000000

Explored 0 nodes (0 simplex iterations) in 0.02 seconds
Thread count was 32 (of 32 available processors)

Solution count 1: 0 

Optimal solution found (tolerance 1.00e-04)
Best objective 0.000000000000e+00, best bound 0.000000000000e+00, gap 0.0000%
Optimize a model with 30 rows, 17 columns and 62 nonzeros
Variable types: 9 continuous, 8 integer (8 binary)
Coefficient statistics:
  Matrix range     [1e+00, 1e+01]
  Objective range  [0e+00, 0e+00]
  Bounds range     [1e+00, 1e+01]
  RHS range        [3e-01, 1e+01]
Presolve removed 19 rows and 10 columns
Presolve time: 0.00s
Presolved: 11 rows, 7 columns, 24 nonzeros
Variable types: 0 continuous, 7 integer (6 binary)
Found heuristic solution: objective 0.0000000

Explored 0 nodes (0 simplex iterations) in 0.02 seconds
Thread count was 32 (of 32 available processors)

Solution count 1: 0 

Optimal solution found (tolerance 1.00e-04)
Best objective 0.000000000000e+00, best bound 0.000000000000e+00, gap 0.0000%
Optimize a model with 30 rows, 17 columns and 62 nonzeros
Variable types: 9 continuous, 8 integer (8 binary)
Coefficient statistics:
  Matrix range     [1e+00, 1e+01]
  Objective range  [0e+00, 0e+00]
  Bounds range     [1e+00, 1e+01]
  RHS range        [2e-01, 1e+01]
Presolve removed 18 rows and 10 columns
Presolve time: 0.00s
Presolved: 12 rows, 7 columns, 26 nonzeros
Variable types: 0 continuous, 7 integer (6 binary)
Found heuristic solution: objective 0.0000000

Explored 0 nodes (0 simplex iterations) in 0.02 seconds
Thread count was 32 (of 32 available processors)

Solution count 1: 0 

Optimal solution found (tolerance 1.00e-04)
Best objective 0.000000000000e+00, best bound 0.000000000000e+00, gap 0.0000%
Optimize a model with 30 rows, 17 columns and 62 nonzeros
Variable types: 9 continuous, 8 integer (8 binary)
Coefficient statistics:
  Matrix range     [1e+00, 1e+01]
  Objective range  [0e+00, 0e+00]
  Bounds range     [1e+00, 1e+01]
  RHS range        [2e-01, 1e+01]
Presolve removed 7 rows and 9 columns
Presolve time: 0.00s

Explored 0 nodes (0 simplex iterations) in 0.01 seconds
Thread count was 1 (of 32 available processors)

Solution count 0

Model is infeasible
Best objective -, best bound -, gap -
Optimize a model with 30 rows, 17 columns and 62 nonzeros
Variable types: 9 continuous, 8 integer (8 binary)
Coefficient statistics:
  Matrix range     [1e+00, 1e+01]
  Objective range  [0e+00, 0e+00]
  Bounds range     [1e+00, 1e+01]
  RHS range        [2e-01, 1e+01]
Presolve removed 19 rows and 10 columns
Presolve time: 0.00s
Presolved: 11 rows, 7 columns, 24 nonzeros
Variable types: 0 continuous, 7 integer (6 binary)
Found heuristic solution: objective 0.0000000

Explored 0 nodes (0 simplex iterations) in 0.02 seconds
Thread count was 32 (of 32 available processors)

Solution count 1: 0 

Optimal solution found (tolerance 1.00e-04)
Best objective 0.000000000000e+00, best bound 0.000000000000e+00, gap 0.0000%
Optimize a model with 30 rows, 17 columns and 70 nonzeros
Variable types: 9 continuous, 8 integer (8 binary)
Coefficient statistics:
  Matrix range     [1e+00, 1e+01]
  Objective range  [1e+00, 1e+00]
  Bounds range     [1e+00, 1e+01]
  RHS range        [2e-01, 1e+01]
Presolve removed 19 rows and 10 columns
Presolve time: 0.00s
Presolved: 11 rows, 7 columns, 24 nonzeros
Variable types: 0 continuous, 7 integer (6 binary)
Found heuristic solution: objective 0.0000000

Explored 0 nodes (0 simplex iterations) in 0.02 seconds
Thread count was 32 (of 32 available processors)

Solution count 1: 0 

Optimal solution found (tolerance 1.00e-04)
Best objective 0.000000000000e+00, best bound 0.000000000000e+00, gap 0.0000%
Optimize a model with 30 rows, 17 columns and 70 nonzeros
Variable types: 9 continuous, 8 integer (8 binary)
Coefficient statistics:
  Matrix range     [1e+00, 1e+01]
  Objective range  [1e+00, 1e+00]
  Bounds range     [1e+00, 1e+01]
  RHS range        [2e-01, 1e+01]
Presolve removed 19 rows and 10 columns
Presolve time: 0.00s
Presolved: 11 rows, 7 columns, 24 nonzeros
Variable types: 0 continuous, 7 integer (6 binary)
Found heuristic solution: objective 0.0000000

Explored 0 nodes (0 simplex iterations) in 0.02 seconds
Thread count was 32 (of 32 available processors)

Solution count 1: 0 

Optimal solution found (tolerance 1.00e-04)
Best objective 0.000000000000e+00, best bound 0.000000000000e+00, gap 0.0000%
Optimize a model with 30 rows, 17 columns and 70 nonzeros
Variable types: 9 continuous, 8 integer (8 binary)
Coefficient statistics:
  Matrix range     [1e+00, 1e+01]
  Objective range  [1e+00, 1e+00]
  Bounds range     [1e+00, 1e+01]
  RHS range        [2e-01, 1e+01]
Presolve removed 19 rows and 10 columns
Presolve time: 0.00s
Presolved: 11 rows, 7 columns, 24 nonzeros
Variable types: 0 continuous, 7 integer (6 binary)
Found heuristic solution: objective 0.0000000

Explored 0 nodes (0 simplex iterations) in 0.02 seconds
Thread count was 32 (of 32 available processors)

Solution count 1: 0 

Optimal solution found (tolerance 1.00e-04)
Best objective 0.000000000000e+00, best bound 0.000000000000e+00, gap 0.0000%
Optimize a model with 30 rows, 17 columns and 70 nonzeros
Variable types: 9 continuous, 8 integer (8 binary)
Coefficient statistics:
  Matrix range     [1e+00, 1e+01]
  Objective range  [1e+00, 1e+00]
  Bounds range     [1e+00, 1e+01]
  RHS range        [2e-01, 1e+01]
Presolve removed 17 rows and 9 columns
Presolve time: 0.00s
Presolved: 13 rows, 8 columns, 32 nonzeros
Variable types: 2 continuous, 6 integer (6 binary)
Found heuristic solution: objective 0.0000000

Explored 0 nodes (0 simplex iterations) in 0.02 seconds
Thread count was 32 (of 32 available processors)

Solution count 1: 0 

Optimal solution found (tolerance 1.00e-04)
Best objective 0.000000000000e+00, best bound 0.000000000000e+00, gap 0.0000%
Optimize a model with 30 rows, 17 columns and 70 nonzeros
Variable types: 9 continuous, 8 integer (8 binary)
Coefficient statistics:
  Matrix range     [1e+00, 1e+01]
  Objective range  [1e+00, 1e+00]
  Bounds range     [1e+00, 1e+01]
  RHS range        [2e-01, 1e+01]
Presolve removed 19 rows and 10 columns
Presolve time: 0.00s
Presolved: 11 rows, 7 columns, 24 nonzeros
Variable types: 0 continuous, 7 integer (6 binary)
Found heuristic solution: objective 0.0000000

Explored 0 nodes (0 simplex iterations) in 0.02 seconds
Thread count was 32 (of 32 available processors)

Solution count 1: 0 

Optimal solution found (tolerance 1.00e-04)
Best objective 0.000000000000e+00, best bound 0.000000000000e+00, gap 0.0000%
Optimize a model with 30 rows, 17 columns and 70 nonzeros
Variable types: 9 continuous, 8 integer (8 binary)
Coefficient statistics:
  Matrix range     [1e+00, 1e+01]
  Objective range  [1e+00, 1e+00]
  Bounds range     [1e+00, 1e+01]
  RHS range        [2e-01, 1e+01]
Presolve removed 17 rows and 9 columns
Presolve time: 0.00s
Presolved: 13 rows, 8 columns, 32 nonzeros
Variable types: 2 continuous, 6 integer (6 binary)
Found heuristic solution: objective 0.0000000

Explored 0 nodes (0 simplex iterations) in 0.01 seconds
Thread count was 32 (of 32 available processors)

Solution count 1: 0 

Optimal solution found (tolerance 1.00e-04)
Best objective 0.000000000000e+00, best bound 0.000000000000e+00, gap 0.0000%
Optimize a model with 30 rows, 17 columns and 70 nonzeros
Variable types: 9 continuous, 8 integer (8 binary)
Coefficient statistics:
  Matrix range     [1e+00, 1e+01]
  Objective range  [1e+00, 1e+00]
  Bounds range     [1e+00, 1e+01]
  RHS range        [2e-01, 1e+01]
Presolve removed 17 rows and 9 columns
Presolve time: 0.00s
Presolved: 13 rows, 8 columns, 32 nonzeros
Variable types: 2 continuous, 6 integer (6 binary)
Found heuristic solution: objective -0.0200000

Explored 0 nodes (0 simplex iterations) in 0.02 seconds
Thread count was 32 (of 32 available processors)

Solution count 1: -0.02 

Optimal solution found (tolerance 1.00e-04)
Best objective -2.000000000001e-02, best bound -2.000000000001e-02, gap 0.0000%
Optimize a model with 30 rows, 17 columns and 70 nonzeros
Variable types: 9 continuous, 8 integer (8 binary)
Coefficient statistics:
  Matrix range     [1e+00, 1e+01]
  Objective range  [1e+00, 1e+00]
  Bounds range     [1e+00, 1e+01]
  RHS range        [2e-01, 1e+01]
Presolve removed 19 rows and 10 columns
Presolve time: 0.00s
Presolved: 11 rows, 7 columns, 24 nonzeros
Variable types: 0 continuous, 7 integer (6 binary)
Found heuristic solution: objective 0.0000000

Explored 0 nodes (0 simplex iterations) in 0.01 seconds
Thread count was 32 (of 32 available processors)

Solution count 1: 0 

Optimal solution found (tolerance 1.00e-04)
Best objective -4.940492459582e-15, best bound -4.940492459582e-15, gap 0.0000%
Optimize a model with 30 rows, 17 columns and 70 nonzeros
Variable types: 9 continuous, 8 integer (8 binary)
Coefficient statistics:
  Matrix range     [1e+00, 1e+01]
  Objective range  [1e+00, 1e+00]
  Bounds range     [1e+00, 1e+01]
  RHS range        [2e-01, 1e+01]
Presolve removed 17 rows and 9 columns
Presolve time: 0.00s
Presolved: 13 rows, 8 columns, 32 nonzeros
Variable types: 2 continuous, 6 integer (6 binary)
Found heuristic solution: objective -0.0500000

Explored 0 nodes (0 simplex iterations) in 0.01 seconds
Thread count was 32 (of 32 available processors)

Solution count 1: -0.05 

Optimal solution found (tolerance 1.00e-04)
Best objective -5.000000000001e-02, best bound -5.000000000001e-02, gap 0.0000%
Optimize a model with 30 rows, 17 columns and 70 nonzeros
Variable types: 9 continuous, 8 integer (8 binary)
Coefficient statistics:
  Matrix range     [1e+00, 1e+01]
  Objective range  [1e+00, 1e+00]
  Bounds range     [1e+00, 1e+01]
  RHS range        [2e-01, 1e+01]
Presolve removed 17 rows and 9 columns
Presolve time: 0.00s
Presolved: 13 rows, 8 columns, 32 nonzeros
Variable types: 2 continuous, 6 integer (6 binary)
Found heuristic solution: objective -0.0500000

Explored 0 nodes (0 simplex iterations) in 0.02 seconds
Thread count was 32 (of 32 available processors)

Solution count 1: -0.05 

Optimal solution found (tolerance 1.00e-04)
Best objective -5.000000000001e-02, best bound -5.000000000001e-02, gap 0.0000%
Optimize a model with 30 rows, 17 columns and 70 nonzeros
Variable types: 9 continuous, 8 integer (8 binary)
Coefficient statistics:
  Matrix range     [1e+00, 1e+01]
  Objective range  [1e+00, 1e+00]
  Bounds range     [1e+00, 1e+01]
  RHS range        [2e-01, 1e+01]
Presolve removed 17 rows and 9 columns
Presolve time: 0.00s
Presolved: 13 rows, 8 columns, 32 nonzeros
Variable types: 2 continuous, 6 integer (6 binary)
Found heuristic solution: objective -0.0500000

Explored 0 nodes (0 simplex iterations) in 0.02 seconds
Thread count was 32 (of 32 available processors)

Solution count 1: -0.05 

Optimal solution found (tolerance 1.00e-04)
Best objective -5.000000000001e-02, best bound -5.000000000001e-02, gap 0.0000%
Optimize a model with 30 rows, 17 columns and 70 nonzeros
Variable types: 9 continuous, 8 integer (8 binary)
Coefficient statistics:
  Matrix range     [1e+00, 1e+01]
  Objective range  [1e+00, 1e+00]
  Bounds range     [1e+00, 1e+01]
  RHS range        [2e-01, 1e+01]
Presolve removed 17 rows and 9 columns
Presolve time: 0.00s
Presolved: 13 rows, 8 columns, 32 nonzeros
Variable types: 2 continuous, 6 integer (6 binary)
Found heuristic solution: objective -0.0500000

Explored 0 nodes (0 simplex iterations) in 0.02 seconds
Thread count was 32 (of 32 available processors)

Solution count 1: -0.05 

Optimal solution found (tolerance 1.00e-04)
Best objective -5.000000000001e-02, best bound -5.000000000001e-02, gap 0.0000%
Optimize a model with 30 rows, 17 columns and 70 nonzeros
Variable types: 9 continuous, 8 integer (8 binary)
Coefficient statistics:
  Matrix range     [1e+00, 1e+01]
  Objective range  [1e+00, 1e+00]
  Bounds range     [1e+00, 1e+01]
  RHS range        [2e-01, 1e+01]
Presolve removed 13 rows and 7 columns
Presolve time: 0.00s
Presolved: 17 rows, 10 columns, 44 nonzeros
Variable types: 3 continuous, 7 integer (7 binary)

Root relaxation: objective -8.000000e-02, 4 iterations, 0.00 seconds

    Nodes    |    Current Node    |     Objective Bounds      |     Work
 Expl Unexpl |  Obj  Depth IntInf | Incumbent    BestBd   Gap | It/Node Time

*    0     0               0      -0.0800000   -0.08000  0.00%     -    0s

Explored 0 nodes (4 simplex iterations) in 0.02 seconds
Thread count was 32 (of 32 available processors)

Solution count 1: -0.08 

Optimal solution found (tolerance 1.00e-04)
Best objective -8.000000000000e-02, best bound -8.000000000000e-02, gap 0.0000%
Optimize a model with 30 rows, 17 columns and 70 nonzeros
Variable types: 9 continuous, 8 integer (8 binary)
Coefficient statistics:
  Matrix range     [1e+00, 1e+01]
  Objective range  [1e+00, 1e+00]
  Bounds range     [1e+00, 1e+01]
  RHS range        [2e-01, 1e+01]
Presolve removed 17 rows and 9 columns
Presolve time: 0.00s
Presolved: 13 rows, 8 columns, 32 nonzeros
Variable types: 2 continuous, 6 integer (6 binary)
Found heuristic solution: objective -0.0500000

Explored 0 nodes (0 simplex iterations) in 0.02 seconds
Thread count was 32 (of 32 available processors)

Solution count 1: -0.05 

Optimal solution found (tolerance 1.00e-04)
Best objective -5.000000000001e-02, best bound -5.000000000001e-02, gap 0.0000%
Optimize a model with 30 rows, 17 columns and 70 nonzeros
Variable types: 9 continuous, 8 integer (8 binary)
Coefficient statistics:
  Matrix range     [1e+00, 1e+01]
  Objective range  [1e+00, 1e+00]
  Bounds range     [1e+00, 1e+01]
  RHS range        [2e-01, 1e+01]
Presolve removed 17 rows and 9 columns
Presolve time: 0.00s
Presolved: 13 rows, 8 columns, 32 nonzeros
Variable types: 2 continuous, 6 integer (6 binary)
Found heuristic solution: objective -0.0500000

Explored 0 nodes (0 simplex iterations) in 0.02 seconds
Thread count was 32 (of 32 available processors)

Solution count 1: -0.05 

Optimal solution found (tolerance 1.00e-04)
Best objective -5.000000000001e-02, best bound -5.000000000001e-02, gap 0.0000%
Optimize a model with 30 rows, 17 columns and 70 nonzeros
Variable types: 9 continuous, 8 integer (8 binary)
Coefficient statistics:
  Matrix range     [1e+00, 1e+01]
  Objective range  [1e+00, 1e+00]
  Bounds range     [1e+00, 1e+01]
  RHS range        [2e-01, 1e+01]
Presolve removed 17 rows and 9 columns
Presolve time: 0.00s
Presolved: 13 rows, 8 columns, 32 nonzeros
Variable types: 2 continuous, 6 integer (6 binary)
Found heuristic solution: objective -0.0500000

Explored 0 nodes (0 simplex iterations) in 0.02 seconds
Thread count was 32 (of 32 available processors)

Solution count 1: -0.05 

Optimal solution found (tolerance 1.00e-04)
Best objective -5.000000000001e-02, best bound -5.000000000001e-02, gap 0.0000%
Optimize a model with 48 rows, 17 columns and 112 nonzeros
Variable types: 9 continuous, 8 integer (8 binary)
Coefficient statistics:
  Matrix range     [1e+00, 1e+01]
  Objective range  [1e+00, 1e+00]
  Bounds range     [1e+00, 1e+01]
  RHS range        [2e-01, 1e+01]

MIP start did not produce a new incumbent solution
MIP start violates constraint R46 by 1.000000000

Presolve removed 0 rows and 2 columns
Presolve time: 0.00s

Explored 0 nodes (0 simplex iterations) in 0.01 seconds
Thread count was 1 (of 32 available processors)

Solution count 0

Model is infeasible
Best objective -, best bound -, gap -
Optimize a model with 30 rows, 17 columns and 70 nonzeros
Variable types: 9 continuous, 8 integer (8 binary)
Coefficient statistics:
  Matrix range     [1e+00, 1e+01]
  Objective range  [1e+00, 1e+00]
  Bounds range     [1e+00, 1e+01]
  RHS range        [2e-01, 1e+01]
Presolve removed 17 rows and 9 columns
Presolve time: 0.00s
Presolved: 13 rows, 8 columns, 32 nonzeros
Variable types: 2 continuous, 6 integer (6 binary)
Found heuristic solution: objective -0.0500000

Explored 0 nodes (0 simplex iterations) in 0.02 seconds
Thread count was 32 (of 32 available processors)

Solution count 1: -0.05 

Optimal solution found (tolerance 1.00e-04)
Best objective -5.000000000001e-02, best bound -5.000000000001e-02, gap 0.0000%
Optimize a model with 48 rows, 17 columns and 112 nonzeros
Variable types: 9 continuous, 8 integer (8 binary)
Coefficient statistics:
  Matrix range     [1e+00, 1e+01]
  Objective range  [1e+00, 1e+00]
  Bounds range     [1e+00, 1e+01]
  RHS range        [2e-01, 1e+01]

MIP start did not produce a new incumbent solution
MIP start violates constraint R46 by 1.000000000

Presolve removed 0 rows and 2 columns
Presolve time: 0.00s

Explored 0 nodes (0 simplex iterations) in 0.02 seconds
Thread count was 1 (of 32 available processors)

Solution count 0

Model is infeasible
Best objective -, best bound -, gap -
Optimize a model with 30 rows, 17 columns and 70 nonzeros
Variable types: 9 continuous, 8 integer (8 binary)
Coefficient statistics:
  Matrix range     [1e+00, 1e+01]
  Objective range  [1e+00, 1e+00]
  Bounds range     [1e+00, 1e+01]
  RHS range        [2e-01, 1e+01]
Presolve removed 17 rows and 9 columns
Presolve time: 0.00s
Presolved: 13 rows, 8 columns, 32 nonzeros
Variable types: 2 continuous, 6 integer (6 binary)
Found heuristic solution: objective -0.0500000

Explored 0 nodes (0 simplex iterations) in 0.02 seconds
Thread count was 32 (of 32 available processors)

Solution count 1: -0.05 

Optimal solution found (tolerance 1.00e-04)
Best objective -5.000000000001e-02, best bound -5.000000000001e-02, gap 0.0000%
Optimize a model with 30 rows, 17 columns and 70 nonzeros
Variable types: 9 continuous, 8 integer (8 binary)
Coefficient statistics:
  Matrix range     [1e+00, 1e+01]
  Objective range  [1e+00, 1e+00]
  Bounds range     [1e+00, 1e+01]
  RHS range        [2e-01, 1e+01]
Presolve removed 17 rows and 9 columns
Presolve time: 0.00s
Presolved: 13 rows, 8 columns, 32 nonzeros
Variable types: 2 continuous, 6 integer (6 binary)
Found heuristic solution: objective -0.0700000

Explored 0 nodes (0 simplex iterations) in 0.01 seconds
Thread count was 32 (of 32 available processors)

Solution count 1: -0.07 

Optimal solution found (tolerance 1.00e-04)
Best objective -7.000000000001e-02, best bound -7.000000000001e-02, gap 0.0000%
Optimize a model with 30 rows, 17 columns and 70 nonzeros
Variable types: 9 continuous, 8 integer (8 binary)
Coefficient statistics:
  Matrix range     [1e+00, 1e+01]
  Objective range  [1e+00, 1e+00]
  Bounds range     [1e+00, 1e+01]
  RHS range        [2e-01, 1e+01]
Presolve removed 17 rows and 9 columns
Presolve time: 0.00s
Presolved: 13 rows, 8 columns, 32 nonzeros
Variable types: 2 continuous, 6 integer (6 binary)
Found heuristic solution: objective -0.0500000

Explored 0 nodes (0 simplex iterations) in 0.01 seconds
Thread count was 32 (of 32 available processors)

Solution count 1: -0.05 

Optimal solution found (tolerance 1.00e-04)
Best objective -5.000000000001e-02, best bound -5.000000000001e-02, gap 0.0000%
